50 8
260 564
583 288
695 854
363 660
438 235
539 678
696 625
213 441
611 460
201 68
826 590
667 270
308 748
592 787
266 673
870 599
868 613
411 205
290 207
747 370
336 321
843 678
258 287
298 293
496 107
833 740
783 503
588 419
809 833
420 173
291 595
727 658
447 190
327 214
191 151
225 565
544 297
629 784
594 797
389 161
336 48
935 585
784 480
234 139
524 109
329 567
328 243
625 730
225 812
330 58
